Gurobi Optimizer version 9.1.2 build v9.1.2rc0 (linux64)
Thread count: 36 physical cores, 72 logical processors, using up to 32 threads
Optimize a model with 12 rows, 57 columns and 590 nonzeros
Model fingerprint: 0xf32eec78
Model has 47 quadratic constraints
Coefficient statistics:
  Matrix range     [2e-05, 3e+00]
  QMatrix range    [1e+00, 1e+00]
  QLMatrix range   [1e+00, 1e+00]
  Objective range  [8e-03, 7e-01]
  Bounds range     [1e+00, 1e+00]
  RHS range        [1e+00, 1e+00]
Presolve removed 9 rows and 0 columns

Continuous model is non-convex -- solving as a MIP.

Presolve removed 9 rows and 0 columns
Presolve time: 0.00s
Presolved: 189 rows, 57 columns, 443 nonzeros
Presolved model has 47 bilinear constraint(s)
Variable types: 57 continuous, 0 integer (0 binary)

Root relaxation: objective -1.743721e+00, 44 iterations, 0.00 seconds

    Nodes    |    Current Node    |     Objective Bounds      |     Work
 Expl Unexpl |  Obj  Depth IntInf | Incumbent    BestBd   Gap | It/Node Time

     0     0   -1.74372    0   38          -   -1.74372      -     -    0s
H    0     0                       0.6147548   -1.74372   384%     -    0s
     0     0   -1.64739    0    1    0.61475   -1.64739   368%     -    0s
H    0     0                      -1.6450460   -1.64739  0.14%     -    0s
     0     0     cutoff    0        -1.64505   -1.64505  0.00%     -    0s

Cutting planes:
  RLT: 25
  BQP: 3

Explored 1 nodes (76 simplex iterations) in 0.01 seconds
Thread count was 32 (of 72 available processors)

Solution count 2: -1.64505 0.614755 
No other solutions better than -1.64505

Optimal solution found (tolerance 1.00e-04)
Best objective -1.645045978473e+00, best bound -1.645045978473e+00, gap 0.0000%

User-callback calls 78, time in user-callback 0.00 sec
Gurobi Optimizer version 9.1.2 build v9.1.2rc0 (linux64)
Thread count: 36 physical cores, 72 logical processors, using up to 32 threads
Optimize a model with 60 rows, 312 columns and 16100 nonzeros
Model fingerprint: 0x7cc772ba
Model has 262 quadratic constraints
Coefficient statistics:
  Matrix range     [4e-07, 7e+00]
  QMatrix range    [1e+00, 1e+00]
  QLMatrix range   [1e+00, 1e+00]
  Objective range  [5e-03, 1e+00]
  Bounds range     [1e+00, 1e+00]
  RHS range        [1e+00, 1e+00]
Presolve removed 16 rows and 0 columns

Continuous model is non-convex -- solving as a MIP.

Presolve removed 16 rows and 0 columns
Presolve time: 0.01s
Presolved: 1080 rows, 312 columns, 13135 nonzeros
Presolved model has 262 bilinear constraint(s)
Variable types: 312 continuous, 0 integer (0 binary)

Root relaxation: objective -2.624201e+01, 332 iterations, 0.02 seconds

    Nodes    |    Current Node    |     Objective Bounds      |     Work
 Expl Unexpl |  Obj  Depth IntInf | Incumbent    BestBd   Gap | It/Node Time

     0     0  -26.24201    0  160          -  -26.24201      -     -    0s
     0     0  -24.76747    0   83          -  -24.76747      -     -    0s
     0     0  -24.74094    0   73          -  -24.74094      -     -    0s
     0     0  -24.69168    0   74          -  -24.69168      -     -    0s
     0     0  -24.69100    0   80          -  -24.69100      -     -    0s
     0     0  -24.68788    0   75          -  -24.68788      -     -    0s
     0     0  -24.68572    0   80          -  -24.68572      -     -    0s
     0     0  -24.67567    0   80          -  -24.67567      -     -    0s
     0     0  -24.67533    0   80          -  -24.67533      -     -    0s
     0     0  -24.67337    0   83          -  -24.67337      -     -    0s
     0     0  -24.67311    0   83          -  -24.67311      -     -    0s
     0     0  -24.67214    0   88          -  -24.67214      -     -    0s
     0     0  -24.67212    0   75          -  -24.67212      -     -    0s
     0     0  -24.67212    0   75          -  -24.67212      -     -    0s
     0     0  -24.67122    0   70          -  -24.67122      -     -    0s
H    0     0                     -22.2582546  -24.67122  10.8%     -    0s
     0     2  -24.67122    0   70  -22.25825  -24.67122  10.8%     -    0s
* 1684  1509              66     -22.2602440  -23.59134  5.98%  73.4    1s
* 1833  1645              68     -22.2603039  -23.59134  5.98%  70.2    1s
* 2228  1919              51     -22.2697467  -23.59134  5.93%  63.2    2s
* 2230  1919              52     -22.2699878  -23.59134  5.93%  63.2    2s
* 2275  1953              59     -23.1294466  -23.59134  2.00%  62.4    2s
* 3473  1850              58     -23.1307026  -23.38855  1.11%  57.4    2s
* 3475  1850              59     -23.1307103  -23.38855  1.11%  57.3    2s
* 3784  1868              53     -23.1351601  -23.38855  1.10%  55.7    2s
* 3789  1868              53     -23.1352700  -23.38855  1.09%  55.7    2s
* 3982  1858              65     -23.1396211  -23.38787  1.07%  55.0    2s
* 3984  1858              66     -23.1397025  -23.38787  1.07%  55.0    2s
* 3985  1858              66     -23.1397032  -23.38787  1.07%  55.0    2s
* 3986  1858              64     -23.1397785  -23.38787  1.07%  55.0    2s
* 4324  1949              63     -23.1465700  -23.38787  1.04%  54.4    3s
* 4325  1949              63     -23.1465738  -23.38787  1.04%  54.4    3s
* 4355  1949              62     -23.1577464  -23.38787  0.99%  54.1    3s
* 5400  1943              51     -23.1586597  -23.28970  0.57%  51.4    3s
* 5401  1943              51     -23.1586623  -23.28970  0.57%  51.4    3s
* 5404  1943              52     -23.1587543  -23.28970  0.57%  51.4    3s
* 5405  1943              52     -23.1587548  -23.28970  0.57%  51.3    3s
* 6962  1799              58     -23.1587564  -23.26028  0.44%  47.5    4s
* 6965  1799              57     -23.1587589  -23.26028  0.44%  47.4    4s
* 7479  1773              64     -23.1596295  -23.25897  0.43%  46.3    4s
* 7936  1804              69     -23.1598964  -23.23089  0.31%  45.2    4s
* 7972  1804              62     -23.1623229  -23.23089  0.30%  45.1    4s
* 8451  1860              58     -23.1649990  -23.22584  0.26%  44.1    4s
 10010  1818  -23.16866   21   30  -23.16500  -23.20934  0.19%  41.8    5s
*11599  1712              50     -23.1650459  -23.20463  0.17%  39.5    5s
*11600  1712              50     -23.1650495  -23.20463  0.17%  39.4    5s
*11604  1712              51     -23.1651333  -23.20463  0.17%  39.4    5s
*12196  1720              52     -23.1652987  -23.20230  0.16%  38.8    5s
*12197  1720              52     -23.1653034  -23.20230  0.16%  38.8    5s
*12200  1720              52     -23.1653044  -23.20230  0.16%  38.8    5s
*12204  1720              53     -23.1653156  -23.20230  0.16%  38.8    5s
*12205  1720              53     -23.1653173  -23.20230  0.16%  38.8    5s
*12206  1720              52     -23.1653244  -23.20230  0.16%  38.8    5s
*12846  1680              49     -23.1653944  -23.19468  0.13%  38.1    5s
*12847  1680              49     -23.1654027  -23.19468  0.13%  38.1    5s
*15105  1709              57     -23.1657307  -23.18682  0.09%  36.1    6s
*15107  1709              58     -23.1657406  -23.18682  0.09%  36.1    6s
*15111  1709              58     -23.1657441  -23.18682  0.09%  36.1    6s
*15113  1709              59     -23.1657537  -23.18682  0.09%  36.1    6s
*15116  1709              60     -23.1657538  -23.18682  0.09%  36.1    6s
*15795  1692              67     -23.1659692  -23.18493  0.08%  35.6    6s
*15796  1692              67     -23.1659706  -23.18493  0.08%  35.6    6s
*16363  1692              65     -23.1660371  -23.18331  0.07%  35.1    6s
*16364  1692              66     -23.1660379  -23.18331  0.07%  35.1    6s
*20993  1423              53     -23.1660438  -23.17326  0.03%  31.5    7s
*20998  1423              54     -23.1662571  -23.17326  0.03%  31.5    7s
*21000  1423              55     -23.1662771  -23.17326  0.03%  31.5    7s
*21408  1423              51     -23.1664025  -23.17326  0.03%  31.2    7s
*22107  1467              61     -23.1666573  -23.17224  0.02%  30.7    7s
*22111  1467              63     -23.1666829  -23.17224  0.02%  30.7    7s
*22112  1467              63     -23.1666839  -23.17224  0.02%  30.7    7s
*25291  1504              65     -23.1666971  -23.16991  0.01%  28.2    7s
*26272  1422              59     -23.1667345  -23.16926  0.01%  27.5    8s
*26686  1422              62     -23.1667507  -23.16918  0.01%  27.3    8s
*26687  1422              62     -23.1667525  -23.16918  0.01%  27.3    8s
*26691  1422              62     -23.1667574  -23.16918  0.01%  27.3    8s
*26692  1422              62     -23.1667608  -23.16918  0.01%  27.3    8s

Cutting planes:
  RLT: 31
  BQP: 7
  PSD: 88

Explored 27635 nodes (737725 simplex iterations) in 8.11 seconds
Thread count was 32 (of 72 available processors)

Solution count 10: -23.1668 -23.1668 -23.1667 ... -23.166

Optimal solution found (tolerance 1.00e-04)
Best objective -2.316676082523e+01, best bound -2.316903643521e+01, gap 0.0098%

User-callback calls 56184, time in user-callback 0.01 sec



objective value: -23.16676082523129
objective bound: -23.16903643520603
x_opt: [0.9985313751019601, 0.8978644312452935, 0.0, 0.32162690039727854, 0.0, 0.0, 1.0, 0.0, 0.0, 0.0, 1.0, 0.0, 1.0, 1.0, 0.5084908853088569, 1.0, 0.0, 1.0, 0.0, 0.0, 0.0, 0.10458641718562352, 0.0, 0.5319394703959734, 0.0, 0.6040676635536917, 0.0, 1.0, 0.0, 0.0, 1.0, 1.0, 0.0, 0.6477052374665891, 1.0, 0.9509923697636194, 0.0, 1.0, 0.0, 1.0, 1.0, 0.0, 0.8651269072007921, 0.0, 0.0, 0.06119182032684582, 0.3615819718229644, 0.5096461837758298, 0.0014317468156256606, 0.0]
GUROBI solution time: 8.114812135696411




